c description: Random 2-CNF over 15 variables and 45 clauses
c generator: CNFgen (0.9.0)
c copyright: (C) 2012-2020 Massimo Lauria <massimo.lauria@uniroma1.it>
c url: https://massimolauria.net/cnfgen
c
p cnf 15 45
5 13 0
5 7 0
-6 -7 0
1 12 0
-5 6 0
-8 -13 0
-4 -12 0
7 -15 0
7 -9 0
-7 -15 0
-13 -15 0
3 11 0
-3 -15 0
-7 -13 0
1 -15 0
5 -8 0
7 -12 0
1 -8 0
1 -5 0
-4 -13 0
-6 -15 0
8 14 0
3 6 0
-3 7 0
4 -14 0
-1 -3 0
-9 14 0
-8 12 0
-5 -14 0
4 5 0
4 -8 0
9 -11 0
-5 7 0
-10 -12 0
-12 -14 0
10 -11 0
6 -15 0
2 -14 0
-8 -10 0
3 -6 0
-1 7 0
9 -15 0
8 -11 0
-4 -5 0
11 -13 0